n_nurses =  27;
sched_period =  28;
n_shifts =  3;
nurses_coverage = array2d(period, shifts, [
0, 0, 0,
0, 0, 0,
0, 0, 0,
0, 0, 0,
0, 0, 0,
4, 10, 4,
8, 2, 6,
0, 0, 0,
0, 0, 0,
0, 0, 0,
5, 4, 2,
4, 5, 2,
0, 0, 0,
5, 3, 2,
0, 0, 0,
0, 0, 0,
0, 0, 0,
4, 5, 2,
3, 8, 4,
5, 3, 10,
0, 0, 0,
5, 6, 2,
6, 8, 3,
0, 0, 0,
0, 0, 0,
4, 5, 2,
2, 2, 1,
3, 3, 6]);
